p cnf 300 898
-13 1 0
-13 5 0
13 -1 -5 0
-14 1 0
-14 6 0
14 -1 -6 0
-15 1 0
-15 7 0
15 -1 -7 0
-16 1 0
-16 8 0
16 -1 -8 0
-17 2 0
-17 5 0
17 -2 -5 0
-18 2 0
-18 6 0
18 -2 -6 0
-19 2 0
-19 7 0
19 -2 -7 0
-20 2 0
-20 8 0
20 -2 -8 0
-21 3 0
-21 5 0
21 -3 -5 0
-22 3 0
-22 6 0
22 -3 -6 0
-23 3 0
-23 7 0
23 -3 -7 0
-24 3 0
-24 8 0
24 -3 -8 0
-25 4 0
-25 5 0
25 -4 -5 0
-26 4 0
-26 6 0
26 -4 -6 0
-27 4 0
-27 7 0
27 -4 -7 0
-28 4 0
-28 8 0
28 -4 -8 0
-29 1 0
-29 9 0
29 -1 -9 0
-30 1 0
-30 10 0
30 -1 -10 0
-31 1 0
-31 11 0
31 -1 -11 0
-32 1 0
-32 12 0
32 -1 -12 0
-33 2 0
-33 9 0
33 -2 -9 0
-34 2 0
-34 10 0
34 -2 -10 0
-35 2 0
-35 11 0
35 -2 -11 0
-36 2 0
-36 12 0
36 -2 -12 0
-37 3 0
-37 9 0
37 -3 -9 0
-38 3 0
-38 10 0
38 -3 -10 0
-39 3 0
-39 11 0
39 -3 -11 0
-40 3 0
-40 12 0
40 -3 -12 0
-41 4 0
-41 9 0
41 -4 -9 0
-42 4 0
-42 10 0
42 -4 -10 0
-43 4 0
-43 11 0
43 -4 -11 0
-44 4 0
-44 12 0
44 -4 -12 0
-45 5 0
-45 9 0
45 -5 -9 0
-46 5 0
-46 10 0
46 -5 -10 0
-47 5 0
-47 11 0
47 -5 -11 0
-48 5 0
-48 12 0
48 -5 -12 0
-49 6 0
-49 9 0
49 -6 -9 0
-50 6 0
-50 10 0
50 -6 -10 0
-51 6 0
-51 11 0
51 -6 -11 0
-52 6 0
-52 12 0
52 -6 -12 0
-53 7 0
-53 9 0
53 -7 -9 0
-54 7 0
-54 10 0
54 -7 -10 0
-55 7 0
-55 11 0
55 -7 -11 0
-56 7 0
-56 12 0
56 -7 -12 0
-57 8 0
-57 9 0
57 -8 -9 0
-58 8 0
-58 10 0
58 -8 -10 0
-59 8 0
-59 11 0
59 -8 -11 0
-60 8 0
-60 12 0
60 -8 -12 0
-61 1 0
-61 5 0
-61 9 0
61 -1 -5 -9 0
-62 1 0
-62 5 0
-62 10 0
62 -1 -5 -10 0
-63 1 0
-63 5 0
-63 11 0
63 -1 -5 -11 0
-64 1 0
-64 5 0
-64 12 0
64 -1 -5 -12 0
-65 1 0
-65 6 0
-65 9 0
65 -1 -6 -9 0
-66 1 0
-66 6 0
-66 10 0
66 -1 -6 -10 0
-67 1 0
-67 6 0
-67 11 0
67 -1 -6 -11 0
-68 1 0
-68 6 0
-68 12 0
68 -1 -6 -12 0
-69 1 0
-69 7 0
-69 9 0
69 -1 -7 -9 0
-70 1 0
-70 7 0
-70 10 0
70 -1 -7 -10 0
-71 1 0
-71 7 0
-71 11 0
71 -1 -7 -11 0
-72 1 0
-72 7 0
-72 12 0
72 -1 -7 -12 0
-73 1 0
-73 8 0
-73 9 0
73 -1 -8 -9 0
-74 1 0
-74 8 0
-74 10 0
74 -1 -8 -10 0
-75 1 0
-75 8 0
-75 11 0
75 -1 -8 -11 0
-76 1 0
-76 8 0
-76 12 0
76 -1 -8 -12 0
-77 2 0
-77 5 0
-77 9 0
77 -2 -5 -9 0
-78 2 0
-78 5 0
-78 10 0
78 -2 -5 -10 0
-79 2 0
-79 5 0
-79 11 0
79 -2 -5 -11 0
-80 2 0
-80 5 0
-80 12 0
80 -2 -5 -12 0
-81 2 0
-81 6 0
-81 9 0
81 -2 -6 -9 0
-82 2 0
-82 6 0
-82 10 0
82 -2 -6 -10 0
-83 2 0
-83 6 0
-83 11 0
83 -2 -6 -11 0
-84 2 0
-84 6 0
-84 12 0
84 -2 -6 -12 0
-85 2 0
-85 7 0
-85 9 0
85 -2 -7 -9 0
-86 2 0
-86 7 0
-86 10 0
86 -2 -7 -10 0
-87 2 0
-87 7 0
-87 11 0
87 -2 -7 -11 0
-88 2 0
-88 7 0
-88 12 0
88 -2 -7 -12 0
-89 2 0
-89 8 0
-89 9 0
89 -2 -8 -9 0
-90 2 0
-90 8 0
-90 10 0
90 -2 -8 -10 0
-91 2 0
-91 8 0
-91 11 0
91 -2 -8 -11 0
-92 2 0
-92 8 0
-92 12 0
92 -2 -8 -12 0
-93 3 0
-93 5 0
-93 9 0
93 -3 -5 -9 0
-94 3 0
-94 5 0
-94 10 0
94 -3 -5 -10 0
-95 3 0
-95 5 0
-95 11 0
95 -3 -5 -11 0
-96 3 0
-96 5 0
-96 12 0
96 -3 -5 -12 0
-97 3 0
-97 6 0
-97 9 0
97 -3 -6 -9 0
-98 3 0
-98 6 0
-98 10 0
98 -3 -6 -10 0
-99 3 0
-99 6 0
-99 11 0
99 -3 -6 -11 0
-100 3 0
-100 6 0
-100 12 0
100 -3 -6 -12 0
-101 3 0
-101 7 0
-101 9 0
101 -3 -7 -9 0
-102 3 0
-102 7 0
-102 10 0
102 -3 -7 -10 0
-103 3 0
-103 7 0
-103 11 0
103 -3 -7 -11 0
-104 3 0
-104 7 0
-104 12 0
104 -3 -7 -12 0
-105 3 0
-105 8 0
-105 9 0
105 -3 -8 -9 0
-106 3 0
-106 8 0
-106 10 0
106 -3 -8 -10 0
-107 3 0
-107 8 0
-107 11 0
107 -3 -8 -11 0
-108 3 0
-108 8 0
-108 12 0
108 -3 -8 -12 0
-109 4 0
-109 5 0
-109 9 0
109 -4 -5 -9 0
-110 4 0
-110 5 0
-110 10 0
110 -4 -5 -10 0
-111 4 0
-111 5 0
-111 11 0
111 -4 -5 -11 0
-112 4 0
-112 5 0
-112 12 0
112 -4 -5 -12 0
-113 4 0
-113 6 0
-113 9 0
113 -4 -6 -9 0
-114 4 0
-114 6 0
-114 10 0
114 -4 -6 -10 0
-115 4 0
-115 6 0
-115 11 0
115 -4 -6 -11 0
-116 4 0
-116 6 0
-116 12 0
116 -4 -6 -12 0
-117 4 0
-117 7 0
-117 9 0
117 -4 -7 -9 0
-118 4 0
-118 7 0
-118 10 0
118 -4 -7 -10 0
-119 4 0
-119 7 0
-119 11 0
119 -4 -7 -11 0
-120 4 0
-120 7 0
-120 12 0
120 -4 -7 -12 0
-121 4 0
-121 8 0
-121 9 0
121 -4 -8 -9 0
-122 4 0
-122 8 0
-122 10 0
122 -4 -8 -10 0
-123 4 0
-123 8 0
-123 11 0
123 -4 -8 -11 0
-124 4 0
-124 8 0
-124 12 0
124 -4 -8 -12 0
x -125 1 5 9 0
x -126 2 6 10 0
x -127 3 7 11 0
x -128 4 8 12 0
x -129 13 29 45 0
x -130 14 17 30 33 46 49 0
x -131 15 18 21 31 34 37 47 50 53 0
x -132 16 19 22 25 32 35 38 41 48 51 54 57 0
x -133 20 23 26 36 39 42 52 55 58 0
x -134 24 27 40 43 56 59 0
x -135 28 44 60 0
x -136 61 0
x -137 62 65 77 0
x -138 63 66 69 78 81 93 0
x -139 64 67 70 73 79 82 85 94 97 109 0
x -140 68 71 74 80 83 86 89 95 98 101 110 113 0
x -141 72 75 84 87 90 96 99 102 105 111 114 117 0
x -142 76 88 91 100 103 106 112 115 118 121 0
x -143 92 104 107 116 119 122 0
x -144 108 120 123 0
x -145 124 0
-146 125 0
-146 136 0
146 -125 -136 0
-147 125 0
-147 137 0
147 -125 -137 0
-148 125 0
-148 138 0
148 -125 -138 0
-149 125 0
-149 139 0
149 -125 -139 0
-150 125 0
-150 140 0
150 -125 -140 0
-151 125 0
-151 141 0
151 -125 -141 0
-152 125 0
-152 142 0
152 -125 -142 0
-153 125 0
-153 143 0
153 -125 -143 0
-154 125 0
-154 144 0
154 -125 -144 0
-155 125 0
-155 145 0
155 -125 -145 0
-156 126 0
-156 136 0
156 -126 -136 0
-157 126 0
-157 137 0
157 -126 -137 0
-158 126 0
-158 138 0
158 -126 -138 0
-159 126 0
-159 139 0
159 -126 -139 0
-160 126 0
-160 140 0
160 -126 -140 0
-161 126 0
-161 141 0
161 -126 -141 0
-162 126 0
-162 142 0
162 -126 -142 0
-163 126 0
-163 143 0
163 -126 -143 0
-164 126 0
-164 144 0
164 -126 -144 0
-165 126 0
-165 145 0
165 -126 -145 0
-166 127 0
-166 136 0
166 -127 -136 0
-167 127 0
-167 137 0
167 -127 -137 0
-168 127 0
-168 138 0
168 -127 -138 0
-169 127 0
-169 139 0
169 -127 -139 0
-170 127 0
-170 140 0
170 -127 -140 0
-171 127 0
-171 141 0
171 -127 -141 0
-172 127 0
-172 142 0
172 -127 -142 0
-173 127 0
-173 143 0
173 -127 -143 0
-174 127 0
-174 144 0
174 -127 -144 0
-175 127 0
-175 145 0
175 -127 -145 0
-176 128 0
-176 136 0
176 -128 -136 0
-177 128 0
-177 137 0
177 -128 -137 0
-178 128 0
-178 138 0
178 -128 -138 0
-179 128 0
-179 139 0
179 -128 -139 0
-180 128 0
-180 140 0
180 -128 -140 0
-181 128 0
-181 141 0
181 -128 -141 0
-182 128 0
-182 142 0
182 -128 -142 0
-183 128 0
-183 143 0
183 -128 -143 0
-184 128 0
-184 144 0
184 -128 -144 0
-185 128 0
-185 145 0
185 -128 -145 0
-186 129 0
-186 136 0
186 -129 -136 0
-187 129 0
-187 137 0
187 -129 -137 0
-188 129 0
-188 138 0
188 -129 -138 0
-189 129 0
-189 139 0
189 -129 -139 0
-190 129 0
-190 140 0
190 -129 -140 0
-191 129 0
-191 141 0
191 -129 -141 0
-192 129 0
-192 142 0
192 -129 -142 0
-193 129 0
-193 143 0
193 -129 -143 0
-194 129 0
-194 144 0
194 -129 -144 0
-195 129 0
-195 145 0
195 -129 -145 0
-196 130 0
-196 136 0
196 -130 -136 0
-197 130 0
-197 137 0
197 -130 -137 0
-198 130 0
-198 138 0
198 -130 -138 0
-199 130 0
-199 139 0
199 -130 -139 0
-200 130 0
-200 140 0
200 -130 -140 0
-201 130 0
-201 141 0
201 -130 -141 0
-202 130 0
-202 142 0
202 -130 -142 0
-203 130 0
-203 143 0
203 -130 -143 0
-204 130 0
-204 144 0
204 -130 -144 0
-205 130 0
-205 145 0
205 -130 -145 0
-206 131 0
-206 136 0
206 -131 -136 0
-207 131 0
-207 137 0
207 -131 -137 0
-208 131 0
-208 138 0
208 -131 -138 0
-209 131 0
-209 139 0
209 -131 -139 0
-210 131 0
-210 140 0
210 -131 -140 0
-211 131 0
-211 141 0
211 -131 -141 0
-212 131 0
-212 142 0
212 -131 -142 0
-213 131 0
-213 143 0
213 -131 -143 0
-214 131 0
-214 144 0
214 -131 -144 0
-215 131 0
-215 145 0
215 -131 -145 0
-216 132 0
-216 136 0
216 -132 -136 0
-217 132 0
-217 137 0
217 -132 -137 0
-218 132 0
-218 138 0
218 -132 -138 0
-219 132 0
-219 139 0
219 -132 -139 0
-220 132 0
-220 140 0
220 -132 -140 0
-221 132 0
-221 141 0
221 -132 -141 0
-222 132 0
-222 142 0
222 -132 -142 0
-223 132 0
-223 143 0
223 -132 -143 0
-224 132 0
-224 144 0
224 -132 -144 0
-225 132 0
-225 145 0
225 -132 -145 0
-226 133 0
-226 136 0
226 -133 -136 0
-227 133 0
-227 137 0
227 -133 -137 0
-228 133 0
-228 138 0
228 -133 -138 0
-229 133 0
-229 139 0
229 -133 -139 0
-230 133 0
-230 140 0
230 -133 -140 0
-231 133 0
-231 141 0
231 -133 -141 0
-232 133 0
-232 142 0
232 -133 -142 0
-233 133 0
-233 143 0
233 -133 -143 0
-234 133 0
-234 144 0
234 -133 -144 0
-235 133 0
-235 145 0
235 -133 -145 0
-236 134 0
-236 136 0
236 -134 -136 0
-237 134 0
-237 137 0
237 -134 -137 0
-238 134 0
-238 138 0
238 -134 -138 0
-239 134 0
-239 139 0
239 -134 -139 0
-240 134 0
-240 140 0
240 -134 -140 0
-241 134 0
-241 141 0
241 -134 -141 0
-242 134 0
-242 142 0
242 -134 -142 0
-243 134 0
-243 143 0
243 -134 -143 0
-244 134 0
-244 144 0
244 -134 -144 0
-245 134 0
-245 145 0
245 -134 -145 0
-246 135 0
-246 136 0
246 -135 -136 0
-247 135 0
-247 137 0
247 -135 -137 0
-248 135 0
-248 138 0
248 -135 -138 0
-249 135 0
-249 139 0
249 -135 -139 0
-250 135 0
-250 140 0
250 -135 -140 0
-251 135 0
-251 141 0
251 -135 -141 0
-252 135 0
-252 142 0
252 -135 -142 0
-253 135 0
-253 143 0
253 -135 -143 0
-254 135 0
-254 144 0
254 -135 -144 0
-255 135 0
-255 145 0
255 -135 -145 0
-256 136 0
-256 137 0
256 -136 -137 0
-257 136 0
-257 138 0
257 -136 -138 0
-258 136 0
-258 139 0
258 -136 -139 0
-259 136 0
-259 140 0
259 -136 -140 0
-260 136 0
-260 141 0
260 -136 -141 0
-261 136 0
-261 142 0
261 -136 -142 0
-262 136 0
-262 143 0
262 -136 -143 0
-263 136 0
-263 144 0
263 -136 -144 0
-264 136 0
-264 145 0
264 -136 -145 0
-265 137 0
-265 138 0
265 -137 -138 0
-266 137 0
-266 139 0
266 -137 -139 0
-267 137 0
-267 140 0
267 -137 -140 0
-268 137 0
-268 141 0
268 -137 -141 0
-269 137 0
-269 142 0
269 -137 -142 0
-270 137 0
-270 143 0
270 -137 -143 0
-271 137 0
-271 144 0
271 -137 -144 0
-272 137 0
-272 145 0
272 -137 -145 0
-273 138 0
-273 139 0
273 -138 -139 0
-274 138 0
-274 140 0
274 -138 -140 0
-275 138 0
-275 141 0
275 -138 -141 0
-276 138 0
-276 142 0
276 -138 -142 0
-277 138 0
-277 143 0
277 -138 -143 0
-278 138 0
-278 144 0
278 -138 -144 0
-279 138 0
-279 145 0
279 -138 -145 0
-280 139 0
-280 140 0
280 -139 -140 0
-281 139 0
-281 141 0
281 -139 -141 0
-282 139 0
-282 142 0
282 -139 -142 0
-283 139 0
-283 143 0
283 -139 -143 0
-284 139 0
-284 144 0
284 -139 -144 0
-285 139 0
-285 145 0
285 -139 -145 0
-286 140 0
-286 141 0
286 -140 -141 0
-287 140 0
-287 142 0
287 -140 -142 0
-288 140 0
-288 143 0
288 -140 -143 0
-289 140 0
-289 144 0
289 -140 -144 0
-290 140 0
-290 145 0
290 -140 -145 0
-291 141 0
-291 142 0
291 -141 -142 0
-292 141 0
-292 143 0
292 -141 -143 0
-293 141 0
-293 144 0
293 -141 -144 0
-294 141 0
-294 145 0
294 -141 -145 0
-295 142 0
-295 143 0
295 -142 -143 0
-296 142 0
-296 144 0
296 -142 -144 0
-297 142 0
-297 145 0
297 -142 -145 0
-298 143 0
-298 144 0
298 -143 -144 0
-299 143 0
-299 145 0
299 -143 -145 0
-300 144 0
-300 145 0
300 -144 -145 0
x 125 128 129 131 132 133 134 138 140 141 145 150 154 159 163 164 168 177 180 181 183 186 188 189 193 195 196 197 201 203 205 209 211 213 214 217 219 221 222 227 229 230 234 237 238 242 246 250 255 260 262 269 271 274 280 281 283 284 285 287 289 290 293 295 297 298 0
x -128 129 131 136 140 141 142 148 149 151 152 154 156 157 158 160 161 163 164 166 167 169 170 173 174 175 176 178 179 180 187 188 190 193 194 195 196 198 201 202 203 204 205 206 209 210 211 212 213 215 217 218 219 220 221 223 226 227 228 229 231 234 235 236 237 239 242 243 247 250 251 255 256 260 268 269 270 271 272 274 276 277 282 283 285 286 288 289 294 295 296 298 299 0
x 129 130 134 135 142 143 147 149 150 152 155 156 157 158 159 161 164 166 167 168 170 175 176 177 179 181 183 186 188 189 191 194 195 196 197 199 202 203 204 205 207 210 211 212 213 214 218 219 220 221 222 224 226 227 228 229 230 232 235 236 237 238 240 243 244 246 248 251 252 257 261 262 263 268 272 275 276 278 280 281 282 284 285 286 289 291 293 0
x 128 129 131 132 133 134 143 144 145 147 152 153 154 155 158 161 162 163 166 167 170 171 173 174 176 179 181 184 185 186 187 188 190 192 193 196 198 200 201 204 206 208 209 212 215 216 217 220 223 225 228 231 233 234 236 239 241 242 244 245 247 249 250 252 253 255 256 257 258 260 261 262 270 274 275 278 279 280 283 284 286 287 288 289 290 291 292 293 295 296 297 299 300 0
x 126 130 131 132 133 134 135 136 137 139 140 141 144 145 146 148 149 150 152 153 156 158 161 162 165 170 171 173 175 179 180 181 183 185 187 188 189 191 193 194 196 197 199 201 202 205 207 209 210 213 217 218 221 224 226 229 232 234 235 237 240 242 243 245 248 250 251 253 254 256 257 258 259 263 264 265 268 269 270 272 278 279 280 282 283 286 287 289 290 291 296 297 298 300 0
x 128 130 131 132 140 143 145 149 150 151 153 155 157 159 162 165 171 172 173 176 184 190 192 193 194 198 200 201 202 205 206 208 209 210 213 216 217 218 221 225 226 229 233 234 235 237 241 242 243 244 249 250 251 252 254 259 261 263 266 269 272 274 275 276 277 278 280 281 282 284 285 286 287 290 293 296 297 298 299 0
x 128 133 135 136 138 145 146 148 149 153 157 159 161 162 164 167 168 169 170 171 172 173 174 176 178 179 181 183 185 188 189 191 194 196 197 199 202 205 207 210 213 218 221 226 229 235 237 243 244 245 251 252 253 257 261 264 265 266 267 268 272 274 276 277 278 281 283 288 290 291 292 293 297 0
x -128 130 131 136 137 138 141 142 143 144 146 147 148 149 151 153 156 157 158 159 164 165 166 170 172 173 174 176 178 179 180 181 182 183 188 190 192 193 196 198 200 201 205 206 208 209 213 216 217 221 229 234 237 242 244 245 250 252 253 254 255 259 260 264 265 266 267 269 271 273 274 275 277 282 283 285 287 288 289 290 292 294 297 298 299 300 0
x 127 130 133 135 138 139 143 144 145 148 157 160 161 163 166 168 170 171 172 173 175 176 180 182 184 189 191 193 194 197 199 201 202 207 209 210 214 217 218 222 226 230 235 238 243 245 246 251 253 254 255 258 260 261 263 270 274 275 276 277 278 280 283 287 288 289 290 292 293 297 299 300 0
x -131 132 133 134 137 138 141 142 143 144 145 146 147 148 149 150 153 154 155 156 157 158 159 161 163 166 167 168 169 174 175 176 180 182 183 184 186 190 192 194 195 198 200 202 203 206 208 210 211 215 216 218 219 223 226 227 231 239 244 247 252 254 255 260 262 264 266 273 274 276 277 278 281 283 284 288 290 291 293 294 295 299 0
x 131 133 134 136 137 139 140 142 143 145 149 153 154 158 167 170 171 173 176 178 180 181 182 183 185 186 187 191 193 195 199 201 203 204 207 209 211 212 217 219 220 224 227 228 232 236 240 245 248 253 255 259 261 263 264 268 269 273 274 275 277 279 280 281 282 284 288 289 292 293 294 296 300 0
x -131 132 134 136 141 142 143 145 146 147 148 149 150 151 156 157 158 159 160 163 164 165 166 167 168 169 171 173 176 177 178 179 184 185 187 188 192 194 196 200 202 204 205 208 210 212 213 216 218 220 221 225 226 228 229 233 236 237 241 249 254 261 264 267 269 270 272 278 281 282 283 284 285 286 289 292 293 294 296 297 0